Set parameter TokenServer to value "hpc-licenses.hpcc.usc.edu"
Set parameter TimeLimit to value 3600
Gurobi Optimizer version 9.5.1 build v9.5.1rc2 (linux64)
Thread count: 20 physical cores, 20 logical processors, using up to 20 threads
Optimize a model with 6007 rows, 4529 columns and 24534 nonzeros
Model fingerprint: 0x8a5ed961
Variable types: 4506 continuous, 23 integer (23 binary)
Coefficient statistics:
  Matrix range     [1e+00, 1e+00]
  Objective range  [1e-03, 3e+00]
  Bounds range     [1e+00, 1e+00]
  RHS range        [1e+00, 2e+02]
Presolve removed 1520 rows and 1515 columns
Presolve time: 0.07s
Presolved: 4487 rows, 3014 columns, 21975 nonzeros
Variable types: 2994 continuous, 20 integer (20 binary)
Found heuristic solution: objective 220.9026839

Root relaxation: objective 2.359633e+02, 2368 iterations, 0.10 seconds (0.07 work units)

    Nodes    |    Current Node    |     Objective Bounds      |     Work
 Expl Unexpl |  Obj  Depth IntInf | Incumbent    BestBd   Gap | It/Node Time

     0     0  235.96327    0    2  220.90268  235.96327  6.82%     -    0s
     0     0  235.74356    0    2  220.90268  235.74356  6.72%     -    0s
     0     0  235.55938    0    2  220.90268  235.55938  6.63%     -    0s
     0     0  235.40836    0    2  220.90268  235.40836  6.57%     -    0s
     0     0  233.45441    0    2  220.90268  233.45441  5.68%     -    0s
H    0     0                     233.3210905  233.45441  0.06%     -    0s
     0     0  233.44100    0    2  233.32109  233.44100  0.05%     -    0s
     0     0  233.44100    0    2  233.32109  233.44100  0.05%     -    1s
     0     0     cutoff    0       233.32109  233.32109  0.00%     -    1s

Cutting planes:
  MIR: 1

Explored 1 nodes (4519 simplex iterations) in 1.39 seconds (0.68 work units)
Thread count was 20 (of 20 available processors)

Solution count 2: 233.321 220.903 

Optimal solution found (tolerance 1.00e-04)
Best objective 2.333210904968e+02, best bound 2.333210904968e+02, gap 0.0000%



#########node  1
V1.7
#########node  2
0.013157894736842096,0.9868421052631579
#########node  3
1.0,0.0


Total Solving Time 1.7704064846038818
obj value 233.3210904967994
Policy Regret train (Sum) 4.147362670960024
Best Treatment Found train (%) 70.19999999999999
treatment classification acc train (%) 75.2
Policy Regret test (Sum) 63.74597884426457
Best Treatment Found test (%) 73.06
treatment classification acc test (%) 74.37
